<instance format="XCSP3" type="COP">
  <variables>
    <array id="x" note="x[i][j] is 1 if a coin is placed at row i and column j" size="[19][19]"> 0 1 </array>
  </variables>
  <constraints>
    <group>
      <sum>
        <list> %... </list>
        <condition> (eq,9) </condition>
      </sum>
      <args> x[0][] </args>
      <args> x[1][] </args>
      <args> x[2][] </args>
      <args> x[3][] </args>
      <args> x[4][] </args>
      <args> x[5][] </args>
      <args> x[6][] </args>
      <args> x[7][] </args>
      <args> x[8][] </args>
      <args> x[9][] </args>
      <args> x[10][] </args>
      <args> x[11][] </args>
      <args> x[12][] </args>
      <args> x[13][] </args>
      <args> x[14][] </args>
      <args> x[15][] </args>
      <args> x[16][] </args>
      <args> x[17][] </args>
      <args> x[18][] </args>
    </group>
    <group>
      <sum>
        <list> %... </list>
        <condition> (eq,9) </condition>
      </sum>
      <args> x[][0] </args>
      <args> x[][1] </args>
      <args> x[][2] </args>
      <args> x[][3] </args>
      <args> x[][4] </args>
      <args> x[][5] </args>
      <args> x[][6] </args>
      <args> x[][7] </args>
      <args> x[][8] </args>
      <args> x[][9] </args>
      <args> x[][10] </args>
      <args> x[][11] </args>
      <args> x[][12] </args>
      <args> x[][13] </args>
      <args> x[][14] </args>
      <args> x[][15] </args>
      <args> x[][16] </args>
      <args> x[][17] </args>
      <args> x[][18] </args>
    </group>
  </constraints>
  <objectives>
    <minimize type="sum">
      <list> x[][] </list>
      <coeffs> 0 1 4 9 16 25 36 49 64 81 100 121 144 169 196 225 256 289 324 1 0 1 4 9 16 25 36 49 64 81 100 121 144 169 196 225 256 289 4 1 0 1 4 9 16 25 36 49 64 81 100 121 144 169 196 225 256 9 4 1 0 1 4 9 16 25 36 49 64 81 100 121 144 169 196 225 16 9 4 1 0 1 4 9 16 25 36 49 64 81 100 121 144 169 196 25 16 9 4 1 0 1 4 9 16 25 36 49 64 81 100 121 144 169 36 25 16 9 4 1 0 1 4 9 16 25 36 49 64 81 100 121 144 49 36 25 16 9 4 1 0 1 4 9 16 25 36 49 64 81 100 121 64 49 36 25 16 9 4 1 0 1 4 9 16 25 36 49 64 81 100 81 64 49 36 25 16 9 4 1 0 1 4 9 16 25 36 49 64 81 100 81 64 49 36 25 16 9 4 1 0 1 4 9 16 25 36 49 64 121 100 81 64 49 36 25 16 9 4 1 0 1 4 9 16 25 36 49 144 121 100 81 64 49 36 25 16 9 4 1 0 1 4 9 16 25 36 169 144 121 100 81 64 49 36 25 16 9 4 1 0 1 4 9 16 25 196 169 144 121 100 81 64 49 36 25 16 9 4 1 0 1 4 9 16 225 196 169 144 121 100 81 64 49 36 25 16 9 4 1 0 1 4 9 256 225 196 169 144 121 100 81 64 49 36 25 16 9 4 1 0 1 4 289 256 225 196 169 144 121 100 81 64 49 36 25 16 9 4 1 0 1 324 289 256 225 196 169 144 121 100 81 64 49 36 25 16 9 4 1 0 </coeffs>
    </minimize>
  </objectives>
</instance>
